unsat
(:cnf-encoding-aux-vars   5
 :eliminated-applications 4
 :eliminated-vars         40
 :max-memory              18.27
 :memory                  18.05
 :nlsat-conflicts         5
 :nlsat-decisions         7
 :nlsat-learned-added     4
 :nlsat-propagations      25
 :num-allocs              9058
 :rlimit-count            16928
 :time                    0.01
 :total-time              0.02)
